% Automatically generated DZN file for Lot Sizing Problem

nb_item_types = 8;
nb_orders = 12;
nb_periods = 15;
inventory_cost = 10;

% item-type-1:		order-1, 
% item-type-2:		order-2, order-3, 
% item-type-3:		order-4, 
% item-type-4:		order-5, 
% item-type-5:		order-6, order-7, 
% item-type-6:		order-8, order-9, 
% item-type-7:		order-10, 
% item-type-8:		order-11, order-12, 

due_period = [ 9, 10, 13, 11, 14, 10, 11, 11, 15, 7, 10, 12,  ];
change_cost = array2d(Orders0, Orders0, [
% 	0   o1  o2  o3  o4  o5  o6  o7  o8  o9  o10  o11  o12  
	 0,  0,  0,  0,  0,  0,  0,  0,  0,  0,  0,  0,  0,   % 0
	 0,  0,  78,  78,  86,  93,  120,  120,  12,  12,  155,  20,  20,   % o1
	 0,  165,  0,  0,  193,  213,  178,  178,  12,  12,  90,  20,  20,   % o2
	 0,  165,  0,  0,  193,  213,  178,  178,  12,  12,  90,  20,  20,   % o3
	 0,  214,  170,  170,  0,  190,  185,  185,  12,  12,  40,  20,  20,   % o4
	 0,  178,  177,  177,  185,  0,  196,  196,  12,  12,  155,  66,  66,   % o5
	 0,  201,  199,  199,  215,  190,  0,  0,  12,  12,  155,  20,  20,   % o6
	 0,  201,  199,  199,  215,  190,  0,  0,  12,  12,  155,  20,  20,   % o7
	 0,  201,  100,  100,  88,  190,  14,  14,  0,  0,  75,  70,  70,   % o8
	 0,  201,  100,  100,  88,  190,  14,  14,  0,  0,  75,  70,  70,   % o9
	 0,  50,  44,  44,  155,  190,  111,  111,  12,  12,  0,  20,  20,   % o10
	 0,  201,  199,  199,  215,  190,  123,  123,  70,  70,  155,  0,  0,   % o11
	 0,  201,  199,  199,  215,  190,  123,  123,  70,  70,  155,  0,  0,   % o12
]);

nb_of_orders = [1, 2, 1, 1, 2, 2, 1, 2, ];
item_type = array1d(Orders0, [0, 1, 2, 2, 3, 4, 5, 5, 6, 6, 7, 8, 8, ]);
